9789
8898
8898
8898
8898
8898
8898
8898
8898
8898
8898
8859
8859
8859
8859
8859
8859
8859
8859
8859
8859
8892
8892
8892
8892
8892
8892
8892
8892
8892
8104
8104
8104
8104
8104
8104
8104
8104
8104
8104
8104
8104
8104
8104
8104
8104
8104
8104
8104
8104
8104
8104
8104
8104
8104
8104
8104
8104
8104
8104
8104
8104
8104
8104
8104
8104
8104
8104
8104
8104
8104
8104
8104
8104
8104
8104
8104
8104
8104
8104
8104
8104
8104
8104
8104
8104
8104
8104
8104
8104
8104
8104
8104
8104
8104
8104
8104
8104
8104
8104
8104
8104
8104
8104
8104
8104
8104
8104
8104
8049
8049
8049
8049
8049
8049
8049
8049
8049
8049
8049
8049
8049
8049
8049
8049
8049
8049
8049
8049
8049
8049
8049
8049
8049
8049
8049
8049
8049
8049
8049
8049
8049
8049
8049
8049
8049
8049
8049
8049
8049
8049
8049
8049
8049
8049
8049
8049
8049
8049
8049
8049
8049
7927
7927
7927
7927
7927
7927
7927
7927
7927
7927
7927
7927
7927
7927
7927
7927
7927
7927
7927
7927
7927
7927
7927
7927
7927
7927
7927
7927
7927
7927
7927
7927
7927
7927
7927
7927
7927
7927
7927
7927
7927
7927
7927
7927
7927
8054
8054
8054
8054
8054
8054
8054
8054
8054
8054
8054
8054
8054
8054
8054
8054
8054
8054
8054
8054
8054
8054
8054
8054
8054
8054
8054
8054
8054
8054
8054
8054
8054
8054
8054
8054
8054
8054
8054
8054
8054
8054
8054
8054
8054
8054
8054
8054
8054
8054
8054
8054
8054
8054
8054
8054
8054
8054
8054
8054
8054
8054
8054
8054
8054
8054
8054
8054
8054
8054
8054
8054
8054
8054
8054
8054
8054
8054
8054
8054
8054
8054
8054
8054
8054
8054
8054
8054
8054
8054
8054
8054
8054
8054
8054
8054
8054
8054
8054
8054
8054
8054
8054
8054
8054
8054
8054
8054
8054
8054
8054
8054
8054
8054
8054
8054
8054
8054
8054
8054
8054
8054
8054
8054
8054
8054
8054
8054
8054
8054
8054
8054
8054
8054
8054
8054
8054
8054
8054
8054
8054
8054
8054
8054
8054
8054
8054
8054
8054
8054
8054
8054
8054
8054
8054
8054
8054
8054
8054
8054
8054
8054
8054
8054
8054
8054
8054
8054
8054
8054
8054
8054
8054
8054
8054
8054
8054
8054
8054
8054
8054
8054
8054
8054
8054
8054
8054
8054
8054
8054
8054
8054
8054
8054
8054
8054
8054
8054
8054
8054
8054
8054
8054
8054
8054
8054
8054
8054
8054
8054
8054
8054
8054
8054
8054
8054
8054
8054
8054
8054
8077
8077
8077
8077
8077
8077
8077
8077
8077
8077
8077
8077
8077
8077
8077
8077
8077
8077
8077
8077
8077
8077
8077
8077
8077
8077
8077
8077
8077
8077
8077
8077
8077
8077
8077
8077
8077
8077
8077
8077
8077
8077
8077
8077
8077
8077
8077
8077
8077
8077
8077
8077
8077
8077
8077
8077
8077
8077
8077
8077
8077
8077
8077
8077
8077
8077
8077
8077
8077
8077
8077
8077
8077
8077
8077
8077
8077
8077
8077
8077
8077
8077
8077
8077
8077
8077
8077
8077
8077
8077
8077
8077
8077
8077
8077
8077
8077
8077
8077
8077
8077
8077
8077
8077
8077
8077
8077
8077
8077
8077
8077
8077
8077
8077
8077
8077
8077
8077
8077
8077
8077
8077
8077
8077
8077
8077
8077
8077
8077
8077
8077
8039
8039
8039
8039
8039
8039
8039
8039
8039
8039
8039
8039
8039
8039
8039
8039
8039
8039
8039
8039
8039
8039
8039
8039
8039
8039
8039
8039
8039
8039
8039
8039
8039
8039
8039
8039
8039
8039
8039
8039
8039
8039
8039
8039
8039
8039
8039
8039
8039
8039
8039
8039
8039
8039
8039
8039
8039
8039
8039
8039
8039
8039
8039
8039
8039
8039
8039
8039
8039
8039
8039
8039
8039
8039
8039
8039
8039
8039
8039
8039
8039
8039
8039
8039
8039
8039
8039
8039
8039
8039
8039
8039
8039
8039
8039
8039
8039
8039
8039
8039
8039
8039
8039
8039
10013
9611
8930
8930
8930
8930
8930
8381
8381
8381
8381
8381
8381
8381
8381
8381
8381
8381
8381
8381
8381
8381
8381
8381
8381
8381
8381
8381
8381
8381
8381
8381
8381
8381
8381
8381
8381
8381
8381
8381
8381
8381
8381
8381
8381
8381
8381
8381
8381
8381
8381
8381
8381
8381
8381
8381
8381
8381
8381
8381
8381
8381
8381
8381
8381
8381
8381
8047
8047
8080
8080
8080
8080
8080
8080
8080
8080
8080
8080
8080
8080
8080
8080
8080
8080
8080
8080
8080
8080
8080
8080
8080
8080
8080
8080
8080
8080
8080
8080
8080
8080
8080
8080
8080
8080
8080
8080
8080
8080
8080
8080
8080
8080
8080
8080
8080
8080
8080
8080
8080
8080
8080
8080
8080
8080
8080
8080
8080
8080
8080
8080
8080
8080
8080
8080
8080
8080
8080
8080
8080
8080
8080
8080
8080
8080
8080
8080
8080
8080
8080
8080
8080
8080
8080
8080
8080
8080
8080
8080
8080
8080
8080
8080
8080
8080
8080
8080
8080
8080
8080
8080
8080
8080
8080
8080
8080
8080
8080
8080
8080
8080
8080
8080
8080
8080
8080
8080
8080
8065
8065
8065
8065
8065
8065
8065
8065
8065
8065
8065
8065
8065
8065
8065
8065
8065
8065
8065
8065
8065
8065
8065
8065
8065
8065
8065
8065
8065
8065
8065
8065
8065
8065
8065
8065
8065
8065
8065
8065
8065
8065
8001
8001
8001
8001
8001
8001
8001
8001
8001
8001
8001
8001
8001
8001
8001
8001
8001
8001
8001
8001
8001
8001
8001
8001
8001
8001
8001
8001
8001
8001
8001
8001
8001
8001
8001
8001
8001
8001
8001
8001
8001
8001
8001
8001
8001
8001
8001
8001
8001
8001
8001
8001
8001
8001
8001
8001
8001
8001
8001
8001
8001
8001
8001
8001
8001
8001
8001
8001
8001
8001
8001
8001
8001
8001
8001
8001
8001
8001
8001
8001
8001
8001
8001
8001
8001
8001
8001
8001
8001
8001
8001
8001
8001
8001
8001
8001
8001
8001
8001
8001
8001
8001
8001
8001
8001
8001
8001
8001
8001
8001
8001
8001
8001
8001
8001
8001
8001
8001
8001
8001
8001
8001
8001
8001
8001
8001
8001
8001
8001
8001
8001
8001
8001
8001
8001
8001
8001
8001
8001
8001
8001
8001
8001
8001
8001
8001
8001
7866
7866
7866
7866
7866
7866
7866
7866
7866
7866
7866
7866
7866
7866
7866
7866
7866
7866
7866
7866
7866
7866
7866
7866
7866
7866
7866
7866
7866
7866
7866
7866
7866
7866
7866
7866
7866
7866
7866
7866
7866
7866
7866
7866
7866
7866
7866
7866
7866
7866
7866
7866
7866
7866
7866
7866
7866
7866
7866
7866
7866
7866
7866
7866
7866
7866
7866
7866
7866
7866
7866
7866
7866
7866
7866
7866
7866
7866
7866
7866
7866
7866
7866
7866
7866
7866
7866
7866
7866
7866
8047
8047
8047
8047
8047
8047
8047
8047
8047
8047
8047
8047
8047
8047
8047
8047
8047
8047
8047
8047
8047
8047
8047
8047
8047
8047
8047
8047
8047
8047
8047
8047
8047
8047
8047
8047
8047
8047
8047
8047
8047
8047
8047
8047
8047
8047
8047
8047
8047
8047
8047
8047
8047
8047
8047
8047
8047
8047
8047
8047
8047
8047
8047
8047
8047
8047
8047
8047
8047
8047
8047
8047
8047
8047
8047
8047
8047
8047
8047
8047
8047
8047
8047
8047
8047
8047
8047
8047
8047
8047
8047
8047
8047
8047
8047
8047
8047
8047
8047
8047
8047
8047
8047
8047
8047
8047
8047
8047
8047
8047
8047
8047
8047
8047
8047
8047
8047
8047
8047
8047
8047
8047
8047
8047
8047
8047
8047
8047
8047
8047
8047
8047
8047
8047
8047
8047
8047
8047
8047
8047
8047
8047
8047
8047
8047
8047
8047
8047
8047
8047
8047
8047
8047
8047
8047
8047
8047
8047
8047
8047
8047
8047
8047
8047
8047
8047
8047
8047
8047
8047
8095
8095
8095
8095
8095
8095
8095
8095
8095
8095
8095
8095
8095
8095
8095
8095
8095
8095
8095
8095
8095
8095
8095
8095
8095
8095
8095
8095
8095
8095
8095
8095
8095
8090
8090
8090
8090
8090
8090
8090
8090
8090
8090
8090
8090
8090
8090
8090
8090
7980
7980
7980
7980
7980
7980
7980
7980
7980
7980
7980
7980
7980
7980
7980
7980
7980
7980
7980
7980
7980
7980
7980
7980
7980
7980
7980
7980
7980
7980
7980
7980
7980
7980
7980
7980
7980
7980
7980
7980
7980
7980
7980
7980
7980
7980
7980
7980
7980
7980
7980
7980
7980
7980
7980
7980
7980
7980
7980
7980
7980
7980
7980
7980
7980
7980
7980
7980
7980
7980
7980
7980
7980
7980
7980
7980
7980
7980
7980
7980
7980
7980
7980
7980
7980
7980
7980
7980
7980
7980
7980
7980
7980
7980
7980
7980
7980
7980
7980
7980
7980
7980
7980
7980
8033
8033
8033
8033
8033
8033
8033
8033
8033
8033
8033
8033
8033
8033
8033
8033
8033
8033
8033
8033
8033
8033
8033
8033
8033
8033
8033
8033
8033
8033
8033
8033
8033
8033
8033
8033
8033
8033
8033
8033
8033
8033
8033
8033
8033
8033
8033
8033
8033
8033
8033
8033
8033
8033
8033
8033
8033
8033
8033
8033
8033
8033
8033
8033
8033
8033
8033
8033
8033
8033
8033
8033
8033
8033
8033
8033
8033
8033
8033
8033
8033
8033
8033
8033
8033
8033
8033
8033
8033
8033
8033
8033
8033
8033
8033
8033
8033
8033
8033
8033
8033
8033
8033
8033
8033
8033
8033
8033
8033
8033
8033
8033
8033
8033
8033
8033
8033
8033
8033
8033
8033
8033
8033
8033
8033
8033
8033
8033
8033
8033
8033
8033
8033
8033
8033
8033
8033
8014
8014
8014
8014
8014
8014
8014
8014
8014
8014
8014
8014
8014
8014
8014
8014
8014
8014
8014
8014
8014
8014
8014
8014
8014
8014
8014
8014
8014
8014
8014
8014
8014
8014
8014
8014
8014
8014
8014
8014
8014
8014
8014
8014
8014
8014
8014
8014
8014
8014
8014
8014
8014
8014
8014
8014
8014
8014
8014
8014
8014
8014
8014
8014
8014
8014
8014
8014
8014
8014
8014
8014
8014
8014
8014
8014
8014
8014
8014
8014
8014
8014
8014
8014
8014
8014
8014
8014
8014
8014
8014
8014
8014
8014
8014
8014
8014
8014
8014
8014
8014
8014
8014
8014
8014
8014
8014
8014
8014
8014
8014
8014
8014
8014
8014
8014
8014
8014
8014
8014
8014
8014
8014
8014
8014
8014
8014
8014
8014
8014
8014
8014
8014
8014
8014
8014
8014
8014
8014
8014
8014
8014
8014
8014
8014
8014
8014
8014
8014
8014
8014
8014
8014
8014
8014
8014
8014
8014
8014
8014
8014
8014
8014
8014
8014
8014
8014
8014
8014
8014
8014
8014
8014
8014
8014
8014
8014
8014
8014
8014
8014
8014
8014
8014
8014
8014
8014
8014
8014
8014
8014
8014
8014
8014
8014
8014
8014
8014
8014
8014
8014
8014
8014
8014
8014
8014
10007
10007
10013
10007
10007
8490
8490
8490
8490
8490
8490
8490
8490
8490
8490
8490
8490
8490
8490
8490
8490
8490
8490
8490
8490
8490
8490
8490
8490
7835
7835
7835
7835
7835
7835
7835
7835
7835
7835
7835
7835
7835
7835
7835
7835
7835
7835
7835
7835
7835
7835
7835
7835
7835
7835
7835
7835
7835
7835
7835
7835
7835
7835
7835
7835
7835
7835
7835
7835
7835
7835
7835
7835
7835
7835
7835
7835
7835
7835
7835
7835
7835
7835
7835
7835
7835
7835
7835
7835
7835
7835
7835
7835
7835
7835
7835
7835
7835
7835
7835
7835
7835
7835
7835
7835
7835
7835
7835
7835
7835
7835
7835
7835
7835
7835
7835
7835
7835
7835
7835
7835
7835
7835
7835
7835
7835
7835
7835
7835
7835
7835
7835
7835
7835
7835
7835
7835
7835
7835
7835
7835
7835
7835
7835
7835
7835
7835
7835
7835
7835
7835
7835
7835
7835
7835
7835
7835
7835
7835
7835
7835
7835
7835
7835
7835
7835
7835
7835
7835
7835
10007
8999
8999
8999
8999
8999
8999
9185
9185
8323
8709
8709
8709
8295
8295
8295
8295
10007
9054
8061
8061
8061
8061
8061
8061
8061
8061
8061
8061
8061
8061
10025
10007
10013
